************************************************************************
file with basedata            : j906_.bas
initial value random generator: 4386
************************************************************************
projects                      :  1
jobs (incl. supersource/sink ):  92
horizon                       :  457
RESOURCES
  - renewable                 :  4   R
  - nonrenewable              :  0   N
  - doubly constrained        :  0   D
************************************************************************
PROJECT INFORMATION:
pronr.  #jobs rel.date duedate tardcost  MPM-Time
    1     90      0       82        7       82
************************************************************************
PRECEDENCE RELATIONS:
jobnr.    #modes  #successors   successors
   1        1          3           2   3   4
   2        1          1           7
   3        1          3           8  10  11
   4        1          3           5   6  12
   5        1          3          14  56  61
   6        1          2          15  24
   7        1          3           9  19  22
   8        1          1          44
   9        1          2          13  17
  10        1          2          37  43
  11        1          1          51
  12        1          3          13  20  60
  13        1          3          16  18  25
  14        1          1          27
  15        1          1          70
  16        1          3          34  38  39
  17        1          3          23  31  36
  18        1          3          48  50  62
  19        1          3          21  53  63
  20        1          1          41
  21        1          3          24  47  84
  22        1          2          29  75
  23        1          2          26  46
  24        1          2          61  64
  25        1          1          69
  26        1          3          28  30  67
  27        1          2          35  72
  28        1          3          45  52  54
  29        1          2          42  83
  30        1          1          32
  31        1          1          74
  32        1          1          33
  33        1          2          71  78
  34        1          1          89
  35        1          2          40  49
  36        1          1          84
  37        1          1          70
  38        1          1          89
  39        1          1          52
  40        1          1          66
  41        1          1          90
  42        1          1          79
  43        1          2          65  84
  44        1          1          62
  45        1          1          81
  46        1          1          59
  47        1          1          85
  48        1          2          56  68
  49        1          2          60  64
  50        1          1          82
  51        1          1          59
  52        1          1          73
  53        1          1          57
  54        1          1          55
  55        1          1          57
  56        1          1          65
  57        1          1          58
  58        1          1          81
  59        1          1          69
  60        1          1          66
  61        1          2          66  71
  62        1          3          77  79  81
  63        1          1          78
  64        1          1          88
  65        1          1          71
  66        1          2          76  91
  67        1          1          80
  68        1          1          76
  69        1          1          70
  70        1          2          74  90
  71        1          1          74
  72        1          1          86
  73        1          1          85
  74        1          1          86
  75        1          1          83
  76        1          1          77
  77        1          1          87
  78        1          1          86
  79        1          1          85
  80        1          1          87
  81        1          1          82
  82        1          1          83
  83        1          1          91
  84        1          1          88
  85        1          2          87  91
  86        1          1          88
  87        1          1          90
  88        1          1          89
  89        1          1          92
  90        1          1          92
  91        1          1          92
  92        1          0        
************************************************************************
REQUESTS/DURATIONS:
jobnr. mode duration  R 1  R 2  R 3  R 4
------------------------------------------------------------------------
  1      1     0       0    0    0    0
  2      1     6       3    0    8    0
  3      1     6       0    2    7    0
  4      1     2       0    4    0    0
  5      1     7       2    8    0    3
  6      1     3       0    0    0    2
  7      1     8       6    0    2    0
  8      1     2       0    0    5    2
  9      1     2       0    1    0    5
 10      1     9       0    0    0    4
 11      1     2       0   10    0    6
 12      1     1       3    0    0    0
 13      1     5       4    0    0    4
 14      1     1       0    3    0    0
 15      1     2       3    5    0    0
 16      1     7       2    3    0    0
 17      1     7       0    5    8    0
 18      1     4       2    6    5    0
 19      1     5       4    5   10    0
 20      1     3       0    0    8    7
 21      1     9       1    0    0    0
 22      1     4       0    1    3    0
 23      1     2       3    9    0    0
 24      1     4       7    4    0   10
 25      1     8       0    5   10    2
 26      1     4       7    8    0    0
 27      1     2       9   10    0    0
 28      1     7       1    0    5    0
 29      1     9       5    6    0   10
 30      1     3       0    9    0   10
 31      1     6       3    0    9    2
 32      1    10       8    2    0    0
 33      1     5       0    0    0    1
 34      1     9       0    0    9    0
 35      1     1       4    5    0    4
 36      1     1      10    0    0    0
 37      1     7       0    0    7    0
 38      1     2       0    3    2    0
 39      1     9       2    0    0    3
 40      1     6       1    4    8    0
 41      1     2       2    0    1    0
 42      1     7       0    5    1   10
 43      1     3       0    0    1   10
 44      1     6       0    0    0    3
 45      1     3       1    1    2   10
 46      1     5       0    0    6    3
 47      1     9       0    5    9    6
 48      1    10       0    3    7    9
 49      1     3       9   10    0    0
 50      1     2       2    1    0    0
 51      1     3       4    0    0    3
 52      1    10       3    0    0    5
 53      1     4       1    7    8    2
 54      1     1       0    5    0    0
 55      1     8       6    2    0    4
 56      1     2       3    0    6    0
 57      1     2       1    0    0    0
 58      1     1       9    0    4    0
 59      1     4      10    0    1    0
 60      1     1       0    0    7    3
 61      1     3       9    0    6    8
 62      1     3       6    0    2    0
 63      1     8       0    3    0    0
 64      1    10       7    0    0    0
 65      1     4       9    0    0    4
 66      1     6       2    0   10    0
 67      1     1      10    0    8    0
 68      1     7       2    0    0    7
 69      1     5       0    0    2    0
 70      1     8       6    9    0    5
 71      1     9       1   10    0    0
 72      1     7       3    0    6    0
 73      1     7       4    0   10    0
 74      1     4       0    0    9    0
 75      1     2       0    0    2    2
 76      1    10       0    0    3    4
 77      1     4       8    1    0    0
 78      1     3       0    0    9    0
 79      1     7       0    0    0    5
 80      1     5       0    0    0    5
 81      1     8       0    0    3    0
 82      1    10       0    6    3    3
 83      1     7       9    0    0    2
 84      1     5       0    0   10    9
 85      1     5       0    6    8    1
 86      1     4       4    1    0   10
 87      1     6       0    0    0    3
 88      1    10       4    0   10    1
 89      1     8       0    0    6    0
 90      1     4       0    9    0    2
 91      1     1       9    3    7    0
 92      1     0       0    0    0    0
************************************************************************
RESOURCEAVAILABILITIES:
  R 1  R 2  R 3  R 4
   27   23   37   36
************************************************************************
